seed= 2052018 ;
N= 270 ;
M= 3 ;
F= 3 ;
K= 8 ;
T= 30 ;

p=[ 2 2 2 2 2 2 2 2 2 2 2 2 2 2 2 2 2 2 2 2 2 2 2 2 2 2 2 2 2 2 2 2 2 2 2 2 2 2 2 2 2 2 2 2 2 2 2 2 2 2 2 2 2 2 2 2 2 2 2 2 2 2 2 2 2 2 2 2 2 2 2 2 2 2 2 2 2 2 2 2 2 2 2 2 2 2 2 2 2 2 2 2 2 2 2 2 2 2 2 2 2 2 2 2 2 2 2 2 2 2 2 2 2 2 2 2 2 2 2 2 2 2 2 2 2 2 2 2 2 2 2 2 2 2 2 2 2 2 2 2 2 2 2 2 2 2 2 2 2 2 2 2 2 2 2 2 2 2 2 2 2 2 2 2 2 2 2 2 2 2 2 2 2 2 2 2 2 2 2 2 2 2 2 2 2 2 2 2 2 2 2 2 2 2 2 2 2 2 2 2 2 2 2 2 2 2 2 2 2 2 2 2 2 2 2 2 2 2 2 2 2 2 2 2 2 2 2 2 2 2 2 2 2 2 2 2 2 2 2 2 2 2 2 2 2 2 2 2 2 2 2 2 2 2 2 2 2 2 2 2 2 2 2 2 2 2 2 2 2 2 ];
r=[ 0 0 0 0 0 0 0 0 0 0 0 0 0 0 0 0 0 0 0 0 0 0 0 0 0 0 0 0 0 0 0 0 0 0 0 0 0 0 0 0 0 0 0 0 0 0 0 0 0 0 0 0 0 0 0 0 0 0 0 0 0 0 0 0 0 0 0 0 0 0 0 0 0 0 0 0 0 0 0 0 0 0 0 0 0 0 0 0 0 0 0 0 0 0 0 0 0 0 0 0 0 0 0 0 0 0 0 0 0 0 0 0 0 0 0 0 0 0 0 0 0 0 0 0 0 0 0 0 0 0 0 0 0 0 0 0 0 0 0 0 0 0 0 0 0 0 0 0 0 0 0 0 0 0 0 0 0 0 0 0 0 0 0 0 0 0 0 0 0 0 0 0 0 0 0 0 0 0 0 0 0 0 0 0 0 0 0 0 0 0 0 0 0 0 0 0 0 0 0 0 0 0 0 0 0 0 0 0 0 0 0 0 0 0 0 0 0 0 0 0 0 0 0 0 0 0 0 0 0 0 0 0 0 0 0 0 0 0 0 0 0 0 0 0 0 0 0 0 0 0 0 0 0 0 0 0 0 0 0 0 0 0 0 0 0 0 0 0 0 0 ];
d=[ 10 27 13 17 13 0 10 30 8 18 17 22 19 28 3 33 15 6 25 4 6 14 27 12 21 32 20 11 29 21 11 6 3 31 9 7 1 0 1 4 30 13 26 0 21 22 14 33 2 19 13 7 17 30 27 26 33 23 24 24 10 26 29 12 12 1 19 12 19 19 17 8 4 12 24 5 18 6 15 23 30 31 29 15 3 15 4 0 32 12 3 32 32 0 5 10 12 9 32 5 15 22 10 12 14 19 22 26 15 4 0 31 3 9 30 3 18 24 27 5 30 17 8 18 4 25 33 1 12 21 4 16 8 22 32 25 18 32 12 15 4 18 19 22 24 4 24 4 30 18 26 20 17 10 11 13 18 23 33 6 12 0 27 20 20 25 18 6 23 14 14 23 33 23 25 7 3 32 14 25 26 10 19 29 15 26 23 17 19 0 16 25 14 20 32 19 6 11 21 23 14 4 11 0 11 28 25 1 10 25 14 1 14 18 22 30 23 2 14 2 22 33 29 12 9 3 7 15 11 5 17 13 13 32 32 32 11 7 21 22 8 2 2 5 24 32 12 24 11 24 4 19 31 8 5 2 8 25 21 11 23 1 8 6 22 20 33 19 33 22 ];
s=[ 1 1 1 1 1 1 1 1 1 1 1 1 1 1 1 1 1 1 1 1 1 1 1 1 1 1 1 1 1 1 1 1 1 1 1 1 1 1 1 1 1 1 1 1 1 1 1 1 1 1 1 1 1 1 1 1 1 1 1 1 1 1 1 1 1 1 1 1 1 1 1 1 1 1 1 1 1 1 1 1 1 1 1 1 1 1 1 1 1 1 1 1 1 1 1 1 1 1 1 1 1 1 1 1 1 1 1 1 1 1 1 1 1 1 1 1 1 1 1 1 1 1 1 1 1 1 1 1 1 1 1 1 1 1 1 1 1 1 1 1 1 1 1 1 1 1 1 1 1 1 1 1 1 1 1 1 1 1 1 1 1 1 1 1 1 1 1 1 1 1 1 1 1 1 1 1 1 1 1 1 1 1 1 1 1 1 1 1 1 1 1 1 1 1 1 1 1 1 1 1 1 1 1 1 1 1 1 1 1 1 1 1 1 1 1 1 1 1 1 1 1 1 1 1 1 1 1 1 1 1 1 1 1 1 1 1 1 1 1 1 1 1 1 1 1 1 1 1 1 1 1 1 1 1 1 1 1 1 1 1 1 1 1 1 1 1 1 1 1 1 ];
w=[ 4 2 4 5 4 3 5 4 3 5 1 1 3 1 4 4 1 2 1 2 3 5 2 3 4 2 4 1 3 1 2 2 1 5 3 1 1 4 1 1 3 4 2 4 1 1 5 5 5 1 3 1 3 1 3 3 5 3 4 3 1 1 2 2 3 3 2 4 2 5 5 3 1 1 3 5 4 5 3 1 3 5 2 5 3 3 1 3 4 3 2 4 2 1 4 4 1 1 4 3 5 2 4 2 4 2 5 2 4 1 1 3 5 4 5 3 2 3 4 1 1 4 2 4 2 2 5 5 4 1 3 1 1 4 1 1 2 3 5 5 1 5 3 2 4 4 2 5 2 3 3 2 1 5 5 3 5 4 3 5 5 1 5 3 3 3 1 2 1 3 5 5 1 1 2 3 3 3 2 3 5 4 2 3 3 5 3 2 5 2 2 4 2 3 5 1 4 5 5 2 1 5 1 1 5 2 2 1 1 1 5 5 5 5 3 2 1 2 4 4 5 3 4 1 4 3 2 1 5 1 3 5 2 5 3 2 3 2 1 1 5 3 3 3 5 2 2 5 3 1 1 4 1 2 1 4 2 2 1 5 1 3 5 5 1 3 1 3 5 5 ];
f=[ 1 1 1 1 1 1 1 1 1 1 1 1 1 1 1 1 1 1 1 1 1 1 1 1 1 1 1 1 1 1 1 1 1 1 1 1 1 1 1 1 1 1 1 1 1 1 1 1 1 1 1 1 1 1 1 1 1 1 1 1 1 1 1 1 1 1 1 1 1 1 1 1 1 1 1 1 1 1 1 1 1 1 1 1 1 1 1 1 1 1 2 2 2 2 2 2 2 2 2 2 2 2 2 2 2 2 2 2 2 2 2 2 2 2 2 2 2 2 2 2 2 2 2 2 2 2 2 2 2 2 2 2 2 2 2 2 2 2 2 2 2 2 2 2 2 2 2 2 2 2 2 2 2 2 2 2 2 2 2 2 2 2 2 2 2 2 2 2 2 2 2 2 2 2 2 2 2 2 2 2 3 3 3 3 3 3 3 3 3 3 3 3 3 3 3 3 3 3 3 3 3 3 3 3 3 3 3 3 3 3 3 3 3 3 3 3 3 3 3 3 3 3 3 3 3 3 3 3 3 3 3 3 3 3 3 3 3 3 3 3 3 3 3 3 3 3 3 3 3 3 3 3 3 3 3 3 3 3 3 3 3 3 3 3 3 3 3 3 3 3 ];

e1=[ 10 10 10 10 10 10 10 10 10 10 10 10 10 10 10 8 8 8 8 8 8 8 8 8 8 8 8 8 8 8 ];
e2=[ 10 10 10 10 10 10 10 10 10 10 9 9 9 9 9 8 8 8 8 8 8 8 8 8 8 9 9 9 9 9 ];